Minimize
  0 O_P_0 + 0 O_N_0 + 0 A_P_0 + 0 P_N_0 + 0 O_P_1 + 0 O_N_1 + 0 A_P_1
   + 0 P_N_1 + 0 O_P_2 + 0 O_N_2 + 0 A_P_2 + 0 P_N_2 - 10 Pairs
Subject To
 C1_0: P_0_0 + P_0_1 + P_0_2 = 1
 C3_0: N_0_0 + N_0_1 + N_0_2 = 1
 C1_1: P_1_0 + P_1_1 + P_1_2 = 1
 C3_1: N_1_0 + N_1_1 + N_1_2 = 1
 C1_2: P_2_0 + P_2_1 + P_2_2 = 1
 C3_2: N_2_0 + N_2_1 + N_2_2 = 1
 C2_0: P_0_0 + P_1_0 + P_2_0 = 1
 C4_0: N_0_0 + N_1_0 + N_2_0 = 1
 C2_1: P_0_1 + P_1_1 + P_2_1 = 1
 C4_1: N_0_1 + N_1_1 + N_2_1 = 1
 C2_2: P_0_2 + P_1_2 + P_2_2 = 1
 C4_2: N_0_2 + N_1_2 + N_2_2 = 1
 D1_0_0_0: - P_0_0 - N_0_0 + Pair_0_0_0 >= -1
 D2_0_0_0: - P_0_0 + Pair_0_0_0 <= 0
 D3_0_0_0: - N_0_0 + Pair_0_0_0 <= 0
 D1_0_0_1: - P_0_1 - N_0_1 + Pair_0_0_1 >= -1
 D2_0_0_1: - P_0_1 + Pair_0_0_1 <= 0
 D3_0_0_1: - N_0_1 + Pair_0_0_1 <= 0
 D1_0_0_2: - P_0_2 - N_0_2 + Pair_0_0_2 >= -1
 D2_0_0_2: - P_0_2 + Pair_0_0_2 <= 0
 D3_0_0_2: - N_0_2 + Pair_0_0_2 <= 0
 D1_1_1_0: - P_1_0 - N_1_0 + Pair_1_1_0 >= -1
 D2_1_1_0: - P_1_0 + Pair_1_1_0 <= 0
 D3_1_1_0: - N_1_0 + Pair_1_1_0 <= 0
 D1_1_1_1: - P_1_1 - N_1_1 + Pair_1_1_1 >= -1
 D2_1_1_1: - P_1_1 + Pair_1_1_1 <= 0
 D3_1_1_1: - N_1_1 + Pair_1_1_1 <= 0
 D1_1_1_2: - P_1_2 - N_1_2 + Pair_1_1_2 >= -1
 D2_1_1_2: - P_1_2 + Pair_1_1_2 <= 0
 D3_1_1_2: - N_1_2 + Pair_1_1_2 <= 0
 D1_2_2_0: - P_2_0 - N_2_0 + Pair_2_2_0 >= -1
 D2_2_2_0: - P_2_0 + Pair_2_2_0 <= 0
 D3_2_2_0: - N_2_0 + Pair_2_2_0 <= 0
 D1_2_2_1: - P_2_1 - N_2_1 + Pair_2_2_1 >= -1
 D2_2_2_1: - P_2_1 + Pair_2_2_1 <= 0
 D3_2_2_1: - N_2_1 + Pair_2_2_1 <= 0
 D1_2_2_2: - P_2_2 - N_2_2 + Pair_2_2_2 >= -1
 D2_2_2_2: - P_2_2 + Pair_2_2_2 <= 0
 D3_2_2_2: - N_2_2 + Pair_2_2_2 <= 0
 D: - Pairs + Pair_0_0_0 + Pair_0_0_1 + Pair_0_0_2 + Pair_1_1_0
   + Pair_1_1_1 + Pair_1_1_2 + Pair_2_2_0 + Pair_2_2_1 + Pair_2_2_2 = 0
Bounds
 Pairs <= 3
Binaries
 O_P_0 O_N_0 A_P_0 P_N_0 O_P_1 O_N_1 A_P_1 P_N_1 O_P_2 O_N_2 A_P_2 P_N_2
 P_0_0 N_0_0 P_0_1 N_0_1 P_0_2 N_0_2 P_1_0 N_1_0 P_1_1 N_1_1 P_1_2 N_1_2
 P_2_0 N_2_0 P_2_1 N_2_1 P_2_2 N_2_2 Pair_0_0_0 Pair_0_0_1 Pair_0_0_2
 Pair_1_1_0 Pair_1_1_1 Pair_1_1_2 Pair_2_2_0 Pair_2_2_1 Pair_2_2_2
End
